############################## T =  5
Academic license - for non-commercial use only
Changed value of parameter lazyConstraints to 1
   Prev: 0  Min: 0  Max: 1  Default: 0
Optimize a model with 2875 rows, 85 columns and 10330 nonzeros
Model has 528 quadratic objective terms
Variable types: 0 continuous, 85 integer (85 binary)
Coefficient statistics:
  Matrix range     [1e+00, 1e+00]
  Objective range  [0e+00, 0e+00]
  QObjective range [6e+01, 2e+04]
  Bounds range     [1e+00, 1e+00]
  RHS range        [1e+00, 2e+00]
Presolve removed 371 rows and 10 columns
Presolve time: 0.01s
Presolved: 3032 rows, 603 columns, 9984 nonzeros
Variable types: 0 continuous, 603 integer (603 binary)

Root relaxation: objective 0.000000e+00, 19 iterations, 0.00 seconds

    Nodes    |    Current Node    |     Objective Bounds      |     Work
 Expl Unexpl |  Obj  Depth IntInf | Incumbent    BestBd   Gap | It/Node Time

     0     0    0.00000    0   10          -    0.00000      -     -    0s
H    0     0                    18116.000000    0.00000   100%     -    0s
     0     0    0.00000    0   10 18116.0000    0.00000   100%     -    0s
     0     0    0.00000    0   10 18116.0000    0.00000   100%     -    0s
     0     0    0.00000    0   10 18116.0000    0.00000   100%     -    0s
     0     0    0.00000    0   10 18116.0000    0.00000   100%     -    0s
     0     0    0.00000    0   10 18116.0000    0.00000   100%     -    0s
     0     0    0.00000    0   10 18116.0000    0.00000   100%     -    0s
     0     0    0.00000    0   12 18116.0000    0.00000   100%     -    0s
     0     0    0.00000    0   12 18116.0000    0.00000   100%     -    0s
     0     2    0.00000    0   12 18116.0000    0.00000   100%     -    0s
H  124    85                    13120.000000  123.00000  99.1%   8.7    0s
H  163   109                    11143.000000  123.00000  98.9%   7.6    0s
H  198   130                    11142.000000  123.00000  98.9%   7.8    0s
*  343   200              15    10981.000000 1755.81818  84.0%   7.7    0s
*  344   199              14    10923.000000 1755.81818  83.9%   7.7    0s
* 1429   447              37    10913.000000 3097.75000  71.6%   9.3    2s
* 1671   372              41    9441.0000000 3486.66667  63.1%   9.2    2s
* 1672   354              41    9440.0000000 3486.66667  63.1%   9.2    2s
* 2515   363              31    8020.0000000 4310.00000  46.3%   8.9    3s
* 2978   291              30    7826.0000000 5165.00000  34.0%   9.2    3s

Cutting planes:
  Gomory: 1
  Flow cover: 3
  Zero half: 7

Explored 3672 nodes (33784 simplex iterations) in 4.04 seconds
Thread count was 4 (of 4 available processors)

Solution count 10: 7826 8020 9440 ... 13120

Optimal solution found (tolerance 1.00e-04)
Best objective 7.826000000000e+03, best bound 7.826000000000e+03, gap 0.0000%

Optimal cost: 7826
print out solution in ascending timestep
timestep  0 :  92429
timestep  0 :  92430
timestep  1 :  106217
timestep  2 :  92818
timestep  3 :  92953
timestep  4 :  91131
{(0, 0): 0.0, (0, 1): 1.0, (0, 2): 1.0, (0, 3): 1.0, (0, 4): 1.0, (1, 0): 0.0, (1, 1): -0.0, (1, 2): -0.0, (1, 3): 0.0, (1, 4): 1.0, (2, 0): 0.0, (2, 1): -0.0, (2, 2): -0.0, (2, 3): -0.0, (2, 4): 1.0, (3, 0): 0.0, (3, 1): -0.0, (3, 2): 0.0, (3, 3): 1.0, (3, 4): 1.0, (4, 0): 0.0, (4, 1): 0.0, (4, 2): 1.0, (4, 3): 1.0, (4, 4): 1.0}
SOLVED AT T =  5
